
Gurobi 12.0.2 (mac64[arm]) logging started Mon Jun 16 00:35:01 2025

Set parameter LogFile to value "/Users/yurunfeng/Documents/GitHub/LRGTS-store-location/result/gurobi/snyder/150nodes/150-0.8-5.log"
Gurobi Optimizer version 12.0.2 build v12.0.2rc0 (mac64[arm] - Darwin 24.5.0 24F74)

CPU model: Apple M4
Thread count: 10 physical cores, 10 logical processors, using up to 10 threads

Non-default parameters:
TimeLimit  1200

Optimize a model with 45900 rows, 113400 columns and 1949236 nonzeros
Model fingerprint: 0x73ec5e5c
Variable types: 0 continuous, 113400 integer (113400 binary)
Coefficient statistics:
  Matrix range     [1e+00, 1e+00]
  Objective range  [1e-01, 8e+06]
  Bounds range     [1e+00, 1e+00]
  RHS range        [1e+00, 1e+00]
Found heuristic solution: objective 6.624322e+07
Presolve removed 450 rows and 22650 columns
Presolve time: 1.45s
Presolved: 45450 rows, 90750 columns, 1902586 nonzeros
Variable types: 0 continuous, 90750 integer (90750 binary)
Deterministic concurrent LP optimizer: primal simplex, dual simplex, and barrier
Showing barrier log only...

Root barrier log...


Barrier performed 0 iterations in 1.91 seconds (6.88 work units)
Barrier solve interrupted - model solved by another algorithm

Concurrent spin time: 0.02s

Solved with dual simplex

Root relaxation: objective 2.751723e+06, 19500 iterations, 0.35 seconds (1.00 work units)

    Nodes    |    Current Node    |     Objective Bounds      |     Work
 Expl Unexpl |  Obj  Depth IntInf | Incumbent    BestBd   Gap | It/Node Time

*    0     0               0    2751722.8743 2751722.87  0.00%     -    1s

Explored 1 nodes (19500 simplex iterations) in 1.92 seconds (6.89 work units)
Thread count was 10 (of 10 available processors)

Solution count 2: 2.75172e+06 6.62432e+07 

Optimal solution found (tolerance 1.00e-04)
Best objective 2.751722874280e+06, best bound 2.751722874280e+06, gap 0.0000%
